Solver command line: ['C:\\Program Files\\gurobi1102\\win64\\bin\\gurobi.bat']

Set parameter Username
Academic license - for non-commercial use only - expires 2025-07-11
Read LP format model from file C:\Users\PAULWI~1\AppData\Local\Temp\tmpqaijlmoq.pyomo.lp
Reading time = 0.13 seconds
objective: 18145 rows, 16799 columns, 40640 nonzeros
Set parameter TimeLimit to value 5000
Set parameter MIPGap to value 0.08
Gurobi Optimizer version 11.0.2 build v11.0.2rc0 (win64 - Windows 10.0 (19045.2))

CPU model: Intel(R) Xeon(R) CPU E5-1607 v2 @ 3.00GHz, instruction set [SSE2|AVX]
Thread count: 4 physical cores, 4 logical processors, using up to 4 threads

Optimize a model with 18145 rows, 16799 columns and 40640 nonzeros
Model fingerprint: 0xd1f0bbb2
Model has 167 quadratic constraints
Variable types: 14448 continuous, 2351 integer (2016 binary)
Coefficient statistics:
  Matrix range     [6e-03, 1e+03]
  QMatrix range    [1e+00, 1e+00]
  Objective range  [4e+01, 3e+02]
  Bounds range     [1e+00, 3e+00]
  RHS range        [3e-04, 1e+04]
Presolve removed 16305 rows and 14454 columns
Presolve time: 0.13s
Presolved: 1840 rows, 2345 columns, 6357 nonzeros
Variable types: 1844 continuous, 501 integer (501 binary)
Found heuristic solution: objective 1191334.5187

Root relaxation: objective 5.368549e+05, 1093 iterations, 0.02 seconds (0.01 work units)

    Nodes    |    Current Node    |     Objective Bounds      |     Work
 Expl Unexpl |  Obj  Depth IntInf | Incumbent    BestBd   Gap | It/Node Time

     0     0 536854.896    0   13 1191334.52 536854.896  54.9%     -    0s
     0     0 537420.792    0   12 1191334.52 537420.792  54.9%     -    0s
     0     0 537554.481    0   15 1191334.52 537554.481  54.9%     -    0s
     0     0 537825.774    0   19 1191334.52 537825.774  54.9%     -    0s
     0     0 537857.088    0   17 1191334.52 537857.088  54.9%     -    0s
     0     0 537857.422    0   16 1191334.52 537857.422  54.9%     -    0s
     0     0 537857.422    0   16 1191334.52 537857.422  54.9%     -    0s
     0     0 537904.814    0   17 1191334.52 537904.814  54.8%     -    0s
     0     0 537904.814    0   20 1191334.52 537904.814  54.8%     -    0s
     0     0 537912.890    0   20 1191334.52 537912.890  54.8%     -    0s
     0     0 537927.875    0   20 1191334.52 537927.875  54.8%     -    0s
     0     0 537927.875    0   20 1191334.52 537927.875  54.8%     -    0s
H    0     0                    540868.85500 537927.875  0.54%     -    0s

Cutting planes:
  Gomory: 12
  Cover: 8
  Implied bound: 4
  MIR: 24
  Flow cover: 6
  Relax-and-lift: 2

Explored 1 nodes (1335 simplex iterations) in 0.44 seconds (0.18 work units)
Thread count was 4 (of 4 available processors)

Solution count 2: 540869 1.19133e+06 

Optimal solution found (tolerance 8.00e-02)
Best objective 5.408688550044e+05, best bound 5.379278746456e+05, gap 0.5438%

